p tw 55 60
1 2
2 13
3 4
4 5
5 6
6 7
7 8
8 9
9 10
10 11
11 12
11 48
12 14
13 24
14 15
15 16
16 17
17 18
18 19
19 20
20 21
21 22
22 23
23 25
24 35
25 26
25 48
26 27
27 28
28 29
28 48
29 30
30 31
31 32
31 37
32 33
33 34
34 36
35 46
36 50
37 38
38 39
39 40
39 41
40 50
41 42
42 43
43 44
44 45
45 47
46 52
47 26
48 49
49 50
50 51
52 53
53 54
54 55
55 3
55 48
